20
1 0 1
3 2 1
5 1 1
6 0 1
6 2 1
7 1 1
7 2 1
7 3 1
7 5 1
8 0 1
8 1 1
8 4 1
9 2 1
9 7 1
10 0 1
10 2 1
10 5 1
10 6 1
11 0 1
11 1 1
11 2 1
11 3 1
11 5 1
11 9 1
12 0 1
12 2 1
12 3 1
12 5 1
12 6 1
12 9 1
12 10 1
13 0 1
13 1 1
13 3 1
13 5 1
13 7 1
13 8 1
13 10 1
14 0 1
14 2 1
14 3 1
14 4 1
14 6 1
14 8 1
14 9 1
14 11 1
14 13 1
15 0 1
15 4 1
15 6 1
15 8 1
15 9 1
15 12 1
16 0 1
16 2 1
16 5 1
16 6 1
16 7 1
16 9 1
16 14 1
16 15 1
17 1 1
17 3 1
17 6 1
17 8 1
17 9 1
17 10 1
17 11 1
17 12 1
17 16 1
18 4 1
18 6 1
18 9 1
18 10 1
18 12 1
18 17 1
19 0 1
19 2 1
19 4 1
19 6 1
19 10 1
19 11 1
19 12 1
19 15 1
19 16 1
19 18 1
